; benchmark generated from python API
(set-info :status unknown)
(define-funs-rec ( ( T2_10 ((x!1 Int)) Int)
                   ( e2_10 ((x!1 Int)) Int)
                   ( f2_10 ((x!1 Int)) Int)
                   ( p2_10 ((x!1 Int)) Int)
                   ( T2_02 ((x!1 Int)) Int)
                   ( p2_02 ((x!1 Int)) Int))
                 ( (mod (+ ((_ e2_10 0) x!1) 1) 2)
                   (let ((a!1 ((_ f2_10 0) (+ ((_ e2_10 0) (- x!1 1)) 1))))
                     (ite (= x!1 0) 0 a!1))
                   (ite (= (mod ((_ p2_10 0) x!1) 2) 0)
                        x!1
                        ((_ f2_10 0) (+ x!1 1)))
                   (ite (= x!1 0) 0 (+ ((_ p2_10 0) (div x!1 2)) x!1))
                   (let ((a!1 (/ (- 1.0 (^ (- 1) ((_ p2_02 0) x!1))) 2.0)))
                     (to_int a!1))
                   (ite (= x!1 0) 0 (+ ((_ p2_02 0) (div x!1 2)) (mod x!1 2)))))
(assert
 (forall ((n Int) )(let ((?x297 ((_ T2_10 0) n)))
(let ((?x298 ((_ T2_02 0) n)))
(let (($x299 (= ?x298 ?x297)))
(let (($x300 (>= n 0)))
(=> $x300 $x299))))))
)
(check-sat)
